(assert (forall ((pkt_0_4_6_0  Int  )(state_group_0_state_0_5_7_0  Int  )(state_group_0_state_1_6_8_0  Int  )) (let ((_n0 2 ))
(let ((_n1 state_group_0_state_0_5_7_0 ))
(let ((_n2 (=   _n1   _n0 ) ))
(let ((_n3 false ))
(let ((_n4 pkt_0_4_6_0 ))
(let ((_n5 (ite (=  _n1  2)  _n4   (ite  _n3  1 0)  ) ))
(let ((_n6 (-  _n5 )))
(let ((_n7 (<   (ite  _n3  1 0)   _n6 ) ))
(let ((_n8 (ite (=  _n1  2)  _n7   _n3  ) ))
(let ((_n9 (and   _n8   _n2 ) ))
(let ((_n10 (not  _n9 ) ))
(let ((_n12 (ite (=  _n1  1)  _n0   _n1  ) ))
(let ((_n13 state_group_0_state_1_6_8_0 ))
(let ((_n14 (ite (=  _n1  1)  (ite  _n3  1 0)   _n13  ) ))
(let ((_n15 3 ))
(let ((_n16 (ite (=  _n14  999)  _n15   _n12  ) ))
(let ((_n17 (ite (=  _n12  2)  _n16   _n12  ) ))
(let ((_n18 (not  _n2 ) ))
(let ((_n19 (ite  _n9   _n4   (ite  _n3  1 0)  ) ))
(let ((_n20 (+   _n19   _n19 ) ))
(let ((_n21 (ite  _n9   _n20   (ite  _n3  1 0)  ) ))
(let ((_n22 (+   _n1   _n21 ) ))
(let ((_n23 (ite (=  (ite  _n8  1 0)  1)  _n22   _n1  ) ))
(let ((_n24 (ite (=  (ite  _n2  1 0)  1)  _n23   _n1  ) ))
(let ((_n25 true ))
(let ((_n26 (ite (=  _n1  2)  (ite  _n3  1 0)   _n1  ) ))
(let ((_n27 (=   _n26   (ite  _n25  1 0) ) ))
(let ((_n28 (ite (=  _n1  2)  _n3   _n27  ) ))
(let ((_n29 (and   _n28   _n18 ) ))
(let ((_n30 (ite  _n29   _n0   (ite  _n3  1 0)  ) ))
(let ((_n31 (ite  _n29   (ite  _n3  1 0)   _n1  ) ))
(let ((_n32 (+   _n31   _n30 ) ))
(let ((_n33 (ite (=  (ite  _n28  1 0)  1)  _n32   _n1  ) ))
(let ((_n34 (ite (=  (ite  _n18  1 0)  1)  _n33   _n24  ) ))
(let ((_n35 (=   _n34   _n17 ) ))
(let ((_n37 (+   _n14   (ite  _n25  1 0) ) ))
(let ((_n38 (ite (=  _n12  2)  _n37   _n14  ) ))
(let ((_n39 (or   _n8   _n18 ) ))
(let ((_n40 (not  _n39 ) ))
(let ((_n41 (+   _n13   (ite  _n40  1 0) ) ))
(let ((_n42 (+   (ite  _n9  1 0)   (ite  _n9  1 0) ) ))
(let ((_n43 (ite  _n9   _n42   (ite  _n3  1 0)  ) ))
(let ((_n44 (+   _n13   _n43 ) ))
(let ((_n45 (ite (=  (ite  _n8  1 0)  1)  _n44   _n41  ) ))
(let ((_n46 (ite (=  (ite  _n2  1 0)  1)  _n45   _n13  ) ))
(let ((_n47 (ite  _n29   (ite  _n3  1 0)   _n13  ) ))
(let ((_n48 (+   _n47   (ite  _n29  1 0) ) ))
(let ((_n49 (ite (=  (ite  _n28  1 0)  1)  _n48   _n13  ) ))
(let ((_n50 (ite (=  (ite  _n18  1 0)  1)  _n49   _n46  ) ))
(let ((_n51 (=   _n50   _n38 ) ))
(let ((_n53 (ite (=  _n4  0)  _n4   (ite  _n3  1 0)  ) ))
(let ((_n54 (ite (=  _n4  0)  _n53   _n4  ) ))
(let ((_n55 (=   _n54   _n4 ) ))
(implies  (and (and (>= state_group_0_state_1_6_8_0 0) (< state_group_0_state_1_6_8_0 1024 ))  (and (and (>= state_group_0_state_0_5_7_0 0) (< state_group_0_state_0_5_7_0 1024 ))  (and (>= pkt_0_4_6_0 0) (< pkt_0_4_6_0 1024 )) ) )   (and  _n10  _n35  _n51  _n55 )  ))))))))))))))))))))))))))))))))))))))))))))))))))))))))
(check-sat)
(get-model)
(exit)